p cnf 1645
-24 -514
-25 -517
-26 -520
-27 -523
-28 -526
-29 -529
-30 -532
-31 -535
-32 -538
-33 -541
-34 -544
-35 -547
-36 -550
-37 -553
-38 -556
-39 -559
-40 -562
-41 -565
-42 -568
-43 -571
-44 -574
-45 -577
-46 -580
-47 581
-48 582
-49 583
-50 584
-51 585
-52 586
-53 587
-54 588
-55 589
-56 590
-57 591
-58 592
-59 593
-60 -25
-60 -26
25 26 60
-61 -27
-61 -28
27 28 61
-62 -29
-62 -30
29 30 62
-63 -31
-63 -32
31 32 63
-64 -33
-64 -34
33 34 64
-65 -35
-65 -36
35 36 65
-66 -37
-66 -38
37 38 66
-67 -39
-67 -40
39 40 67
-68 -41
-68 -42
41 42 68
-69 -43
-69 -44
43 44 69
-70 -45
-70 -46
45 46 70
-71 -47
-71 -48
47 48 71
-72 -49
-72 -50
49 50 72
-73 -51
-73 -52
51 52 73
-74 -53
-74 -54
53 54 74
-75 -55
-75 -56
55 56 75
-76 -57
-76 -58
57 58 76
-77 60
-77 61
-60 -61 77
-78 62
-78 63
-62 -63 78
-79 64
-79 65
-64 -65 79
-80 66
-80 67
-66 -67 80
-81 68
-81 69
-68 -69 81
-82 70
-82 71
-70 -71 82
-83 72
-83 73
-72 -73 83
-84 74
-84 75
-74 -75 84
-85 -59
-85 76
59 -76 85
-86 77
-86 78
-77 -78 86
-87 79
-87 80
-79 -80 87
-88 81
-88 82
-81 -82 88
-89 83
-89 84
-83 -84 89
-90 86
-90 87
-86 -87 90
-91 88
-91 89
-88 -89 91
-92 90
-92 91
-90 -91 92
-93 85
-93 92
-85 -92 93
-94 -24
-94 25
24 -25 94
-95 24
-95 -25
-24 25 95
-96 -94
-96 -95
94 95 96
-97 24
-97 25
-24 -25 97
-98 -24
-98 -96
24 96 98
-99 24
-99 96
-24 -96 99
-100 -98
-100 -99
98 99 100
-101 24
-101 -96
-24 96 101
-102 -97
-102 -101
97 101 102
-103 -25
-103 26
25 -26 103
-104 25
-104 -26
-25 26 104
-105 -103
-105 -104
103 104 105
-106 25
-106 26
-25 -26 106
-107 102
-107 -105
-102 105 107
-108 -102
-108 105
102 -105 108
-109 -107
-109 -108
107 108 109
-110 -102
-110 -105
102 105 110
-111 -106
-111 -110
106 110 111
-112 -26
-112 27
26 -27 112
-113 26
-113 -27
-26 27 113
-114 -112
-114 -113
112 113 114
-115 26
-115 27
-26 -27 115
-116 111
-116 -114
-111 114 116
-117 -111
-117 114
111 -114 117
-118 -116
-118 -117
116 117 118
-119 -111
-119 -114
111 114 119
-120 -115
-120 -119
115 119 120
-121 -27
-121 28
27 -28 121
-122 27
-122 -28
-27 28 122
-123 -121
-123 -122
121 122 123
-124 27
-124 28
-27 -28 124
-125 120
-125 -123
-120 123 125
-126 -120
-126 123
120 -123 126
-127 -125
-127 -126
125 126 127
-128 -120
-128 -123
120 123 128
-129 -124
-129 -128
124 128 129
-130 -28
-130 29
28 -29 130
-131 28
-131 -29
-28 29 131
-132 -130
-132 -131
130 131 132
-133 28
-133 29
-28 -29 133
-134 129
-134 -132
-129 132 134
-135 -129
-135 132
129 -132 135
-136 -134
-136 -135
134 135 136
-137 -129
-137 -132
129 132 137
-138 -133
-138 -137
133 137 138
-139 -29
-139 30
29 -30 139
-140 29
-140 -30
-29 30 140
-141 -139
-141 -140
139 140 141
-142 29
-142 30
-29 -30 142
-143 138
-143 -141
-138 141 143
-144 -138
-144 141
138 -141 144
-145 -143
-145 -144
143 144 145
-146 -138
-146 -141
138 141 146
-147 -142
-147 -146
142 146 147
-148 -30
-148 31
30 -31 148
-149 30
-149 -31
-30 31 149
-150 -148
-150 -149
148 149 150
-151 30
-151 31
-30 -31 151
-152 147
-152 -150
-147 150 152
-153 -147
-153 150
147 -150 153
-154 -152
-154 -153
152 153 154
-155 -147
-155 -150
147 150 155
-156 -151
-156 -155
151 155 156
-157 -31
-157 32
31 -32 157
-158 31
-158 -32
-31 32 158
-159 -157
-159 -158
157 158 159
-160 31
-160 32
-31 -32 160
-161 156
-161 -159
-156 159 161
-162 -156
-162 159
156 -159 162
-163 -161
-163 -162
161 162 163
-164 -156
-164 -159
156 159 164
-165 -160
-165 -164
160 164 165
-166 -32
-166 33
32 -33 166
-167 32
-167 -33
-32 33 167
-168 -166
-168 -167
166 167 168
-169 32
-169 33
-32 -33 169
-170 165
-170 -168
-165 168 170
-171 -165
-171 168
165 -168 171
-172 -170
-172 -171
170 171 172
-173 -165
-173 -168
165 168 173
-174 -169
-174 -173
169 173 174
-175 -33
-175 34
33 -34 175
-176 33
-176 -34
-33 34 176
-177 -175
-177 -176
175 176 177
-178 33
-178 34
-33 -34 178
-179 174
-179 -177
-174 177 179
-180 -174
-180 177
174 -177 180
-181 -179
-181 -180
179 180 181
-182 -174
-182 -177
174 177 182
-183 -178
-183 -182
178 182 183
-184 -34
-184 35
34 -35 184
-185 34
-185 -35
-34 35 185
-186 -184
-186 -185
184 185 186
-187 34
-187 35
-34 -35 187
-188 183
-188 -186
-183 186 188
-189 -183
-189 186
183 -186 189
-190 -188
-190 -189
188 189 190
-191 -183
-191 -186
183 186 191
-192 -187
-192 -191
187 191 192
-193 -35
-193 36
35 -36 193
-194 35
-194 -36
-35 36 194
-195 -193
-195 -194
193 194 195
-196 35
-196 36
-35 -36 196
-197 192
-197 -195
-192 195 197
-198 -192
-198 195
192 -195 198
-199 -197
-199 -198
197 198 199
-200 -192
-200 -195
192 195 200
-201 -196
-201 -200
196 200 201
-202 -36
-202 37
36 -37 202
-203 36
-203 -37
-36 37 203
-204 -202
-204 -203
202 203 204
-205 36
-205 37
-36 -37 205
-206 201
-206 -204
-201 204 206
-207 -201
-207 204
201 -204 207
-208 -206
-208 -207
206 207 208
-209 -201
-209 -204
201 204 209
-210 -205
-210 -209
205 209 210
-211 -37
-211 38
37 -38 211
-212 37
-212 -38
-37 38 212
-213 -211
-213 -212
211 212 213
-214 37
-214 38
-37 -38 214
-215 210
-215 -213
-210 213 215
-216 -210
-216 213
210 -213 216
-217 -215
-217 -216
215 216 217
-218 -210
-218 -213
210 213 218
-219 -214
-219 -218
214 218 219
-220 -38
-220 39
38 -39 220
-221 38
-221 -39
-38 39 221
-222 -220
-222 -221
220 221 222
-223 38
-223 39
-38 -39 223
-224 219
-224 -222
-219 222 224
-225 -219
-225 222
219 -222 225
-226 -224
-226 -225
224 225 226
-227 -219
-227 -222
219 222 227
-228 -223
-228 -227
223 227 228
-229 -39
-229 40
39 -40 229
-230 39
-230 -40
-39 40 230
-231 -229
-231 -230
229 230 231
-232 39
-232 40
-39 -40 232
-233 228
-233 -231
-228 231 233
-234 -228
-234 231
228 -231 234
-235 -233
-235 -234
233 234 235
-236 -228
-236 -231
228 231 236
-237 -232
-237 -236
232 236 237
-238 -40
-238 41
40 -41 238
-239 40
-239 -41
-40 41 239
-240 -238
-240 -239
238 239 240
-241 40
-241 41
-40 -41 241
-242 237
-242 -240
-237 240 242
-243 -237
-243 240
237 -240 243
-244 -242
-244 -243
242 243 244
-245 -237
-245 -240
237 240 245
-246 -241
-246 -245
241 245 246
-247 -41
-247 42
41 -42 247
-248 41
-248 -42
-41 42 248
-249 -247
-249 -248
247 248 249
-250 41
-250 42
-41 -42 250
-251 246
-251 -249
-246 249 251
-252 -246
-252 249
246 -249 252
-253 -251
-253 -252
251 252 253
-254 -246
-254 -249
246 249 254
-255 -250
-255 -254
250 254 255
-256 -42
-256 43
42 -43 256
-257 42
-257 -43
-42 43 257
-258 -256
-258 -257
256 257 258
-259 42
-259 43
-42 -43 259
-260 255
-260 -258
-255 258 260
-261 -255
-261 258
255 -258 261
-262 -260
-262 -261
260 261 262
-263 -255
-263 -258
255 258 263
-264 -259
-264 -263
259 263 264
-265 -43
-265 44
43 -44 265
-266 43
-266 -44
-43 44 266
-267 -265
-267 -266
265 266 267
-268 43
-268 44
-43 -44 268
-269 264
-269 -267
-264 267 269
-270 -264
-270 267
264 -267 270
-271 -269
-271 -270
269 270 271
-272 -264
-272 -267
264 267 272
-273 -268
-273 -272
268 272 273
-274 -44
-274 45
44 -45 274
-275 44
-275 -45
-44 45 275
-276 -274
-276 -275
274 275 276
-277 44
-277 45
-44 -45 277
-278 273
-278 -276
-273 276 278
-279 -273
-279 276
273 -276 279
-280 -278
-280 -279
278 279 280
-281 -273
-281 -276
273 276 281
-282 -277
-282 -281
277 281 282
-283 -45
-283 46
45 -46 283
-284 45
-284 -46
-45 46 284
-285 -283
-285 -284
283 284 285
-286 45
-286 46
-45 -46 286
-287 282
-287 -285
-282 285 287
-288 -282
-288 285
282 -285 288
-289 -287
-289 -288
287 288 289
-290 -282
-290 -285
282 285 290
-291 -286
-291 -290
286 290 291
-292 -46
-292 47
46 -47 292
-293 46
-293 -47
-46 47 293
-294 -292
-294 -293
292 293 294
-295 46
-295 47
-46 -47 295
-296 291
-296 -294
-291 294 296
-297 -291
-297 294
291 -294 297
-298 -296
-298 -297
296 297 298
-299 -291
-299 -294
291 294 299
-300 -295
-300 -299
295 299 300
-301 -47
-301 48
47 -48 301
-302 47
-302 -48
-47 48 302
-303 -301
-303 -302
301 302 303
-304 47
-304 48
-47 -48 304
-305 300
-305 -303
-300 303 305
-306 -300
-306 303
300 -303 306
-307 -305
-307 -306
305 306 307
-308 -300
-308 -303
300 303 308
-309 -304
-309 -308
304 308 309
-310 -48
-310 49
48 -49 310
-311 48
-311 -49
-48 49 311
-312 -310
-312 -311
310 311 312
-313 48
-313 49
-48 -49 313
-314 309
-314 -312
-309 312 314
-315 -309
-315 312
309 -312 315
-316 -314
-316 -315
314 315 316
-317 -309
-317 -312
309 312 317
-318 -313
-318 -317
313 317 318
-319 -49
-319 50
49 -50 319
-320 49
-320 -50
-49 50 320
-321 -319
-321 -320
319 320 321
-322 49
-322 50
-49 -50 322
-323 318
-323 -321
-318 321 323
-324 -318
-324 321
318 -321 324
-325 -323
-325 -324
323 324 325
-326 -318
-326 -321
318 321 326
-327 -322
-327 -326
322 326 327
-328 -50
-328 51
50 -51 328
-329 50
-329 -51
-50 51 329
-330 -328
-330 -329
328 329 330
-331 50
-331 51
-50 -51 331
-332 327
-332 -330
-327 330 332
-333 -327
-333 330
327 -330 333
-334 -332
-334 -333
332 333 334
-335 -327
-335 -330
327 330 335
-336 -331
-336 -335
331 335 336
-337 -51
-337 52
51 -52 337
-338 51
-338 -52
-51 52 338
-339 -337
-339 -338
337 338 339
-340 51
-340 52
-51 -52 340
-341 336
-341 -339
-336 339 341
-342 -336
-342 339
336 -339 342
-343 -341
-343 -342
341 342 343
-344 -336
-344 -339
336 339 344
-345 -340
-345 -344
340 344 345
-346 -52
-346 53
52 -53 346
-347 52
-347 -53
-52 53 347
-348 -346
-348 -347
346 347 348
-349 52
-349 53
-52 -53 349
-350 345
-350 -348
-345 348 350
-351 -345
-351 348
345 -348 351
-352 -350
-352 -351
350 351 352
-353 -345
-353 -348
345 348 353
-354 -349
-354 -353
349 353 354
-355 -53
-355 54
53 -54 355
-356 53
-356 -54
-53 54 356
-357 -355
-357 -356
355 356 357
-358 53
-358 54
-53 -54 358
-359 354
-359 -357
-354 357 359
-360 -354
-360 357
354 -357 360
-361 -359
-361 -360
359 360 361
-362 -354
-362 -357
354 357 362
-363 -358
-363 -362
358 362 363
-364 -54
-364 55
54 -55 364
-365 54
-365 -55
-54 55 365
-366 -364
-366 -365
364 365 366
-367 54
-367 55
-54 -55 367
-368 363
-368 -366
-363 366 368
-369 -363
-369 366
363 -366 369
-370 -368
-370 -369
368 369 370
-371 -363
-371 -366
363 366 371
-372 -367
-372 -371
367 371 372
-373 -55
-373 56
55 -56 373
-374 55
-374 -56
-55 56 374
-375 -373
-375 -374
373 374 375
-376 55
-376 56
-55 -56 376
-377 372
-377 -375
-372 375 377
-378 -372
-378 375
372 -375 378
-379 -377
-379 -378
377 378 379
-380 -372
-380 -375
372 375 380
-381 -376
-381 -380
376 380 381
-382 -56
-382 57
56 -57 382
-383 56
-383 -57
-56 57 383
-384 -382
-384 -383
382 383 384
-385 56
-385 57
-56 -57 385
-386 381
-386 -384
-381 384 386
-387 -381
-387 384
381 -384 387
-388 -386
-388 -387
386 387 388
-389 -381
-389 -384
381 384 389
-390 -385
-390 -389
385 389 390
-391 -57
-391 58
57 -58 391
-392 57
-392 -58
-57 58 392
-393 -391
-393 -392
391 392 393
-394 57
-394 58
-57 -58 394
-395 390
-395 -393
-390 393 395
-396 -390
-396 393
390 -393 396
-397 -395
-397 -396
395 396 397
-398 -390
-398 -393
390 393 398
-399 -394
-399 -398
394 398 399
-400 -58
-400 59
58 -59 400
-401 58
-401 -59
-58 59 401
-402 -400
-402 -401
400 401 402
-403 58
-403 59
-58 -59 403
-404 399
-404 -402
-399 402 404
-405 -399
-405 402
399 -402 405
-406 -404
-406 -405
404 405 406
-407 -399
-407 -402
399 402 407
-408 -403
-408 -407
403 407 408
-409 24
-409 -100
-24 100 409
-410 -24
-410 26
24 -26 410
-411 -409
-411 -410
409 410 411
-412 24
-412 -109
-24 109 412
-413 -24
-413 27
24 -27 413
-414 -412
-414 -413
412 413 414
-415 24
-415 -118
-24 118 415
-416 -24
-416 28
24 -28 416
-417 -415
-417 -416
415 416 417
-418 24
-418 -127
-24 127 418
-419 -24
-419 29
24 -29 419
-420 -418
-420 -419
418 419 420
-421 24
-421 -136
-24 136 421
-422 -24
-422 30
24 -30 422
-423 -421
-423 -422
421 422 423
-424 24
-424 -145
-24 145 424
-425 -24
-425 31
24 -31 425
-426 -424
-426 -425
424 425 426
-427 24
-427 -154
-24 154 427
-428 -24
-428 32
24 -32 428
-429 -427
-429 -428
427 428 429
-430 24
-430 -163
-24 163 430
-431 -24
-431 33
24 -33 431
-432 -430
-432 -431
430 431 432
-433 24
-433 -172
-24 172 433
-434 -24
-434 34
24 -34 434
-435 -433
-435 -434
433 434 435
-436 24
-436 -181
-24 181 436
-437 -24
-437 35
24 -35 437
-438 -436
-438 -437
436 437 438
-439 24
-439 -190
-24 190 439
-440 -24
-440 36
24 -36 440
-441 -439
-441 -440
439 440 441
-442 24
-442 -199
-24 199 442
-443 -24
-443 37
24 -37 443
-444 -442
-444 -443
442 443 444
-445 24
-445 -208
-24 208 445
-446 -24
-446 38
24 -38 446
-447 -445
-447 -446
445 446 447
-448 24
-448 -217
-24 217 448
-449 -24
-449 39
24 -39 449
-450 -448
-450 -449
448 449 450
-451 24
-451 -226
-24 226 451
-452 -24
-452 40
24 -40 452
-453 -451
-453 -452
451 452 453
-454 24
-454 -235
-24 235 454
-455 -24
-455 41
24 -41 455
-456 -454
-456 -455
454 455 456
-457 24
-457 -244
-24 244 457
-458 -24
-458 42
24 -42 458
-459 -457
-459 -458
457 458 459
-460 24
-460 -253
-24 253 460
-461 -24
-461 43
24 -43 461
-462 -460
-462 -461
460 461 462
-463 24
-463 -262
-24 262 463
-464 -24
-464 44
24 -44 464
-465 -463
-465 -464
463 464 465
-466 24
-466 -271
-24 271 466
-467 -24
-467 45
24 -45 467
-468 -466
-468 -467
466 467 468
-469 24
-469 -280
-24 280 469
-470 -24
-470 46
24 -46 470
-471 -469
-471 -470
469 470 471
-472 24
-472 -289
-24 289 472
-473 -24
-473 47
24 -47 473
-474 -472
-474 -473
472 473 474
-475 24
-475 -298
-24 298 475
-476 -24
-476 48
24 -48 476
-477 -475
-477 -476
475 476 477
-478 24
-478 -307
-24 307 478
-479 -24
-479 49
24 -49 479
-480 -478
-480 -479
478 479 480
-481 24
-481 -316
-24 316 481
-482 -24
-482 50
24 -50 482
-483 -481
-483 -482
481 482 483
-484 24
-484 -325
-24 325 484
-485 -24
-485 51
24 -51 485
-486 -484
-486 -485
484 485 486
-487 24
-487 -334
-24 334 487
-488 -24
-488 52
24 -52 488
-489 -487
-489 -488
487 488 489
-490 24
-490 -343
-24 343 490
-491 -24
-491 53
24 -53 491
-492 -490
-492 -491
490 491 492
-493 24
-493 -352
-24 352 493
-494 -24
-494 54
24 -54 494
-495 -493
-495 -494
493 494 495
-496 24
-496 -361
-24 361 496
-497 -24
-497 55
24 -55 497
-498 -496
-498 -497
496 497 498
-499 24
-499 -370
-24 370 499
-500 -24
-500 56
24 -56 500
-501 -499
-501 -500
499 500 501
-502 24
-502 -379
-24 379 502
-503 -24
-503 57
24 -57 503
-504 -502
-504 -503
502 503 504
-505 24
-505 -388
-24 388 505
-506 -24
-506 58
24 -58 506
-507 -505
-507 -506
505 506 507
-508 24
-508 -397
-24 397 508
-509 -24
-509 59
24 -59 509
-510 -508
-510 -509
508 509 510
-511 24
-511 -406
-24 406 511
-512 1
-512 93
-1 -93 512
-513 -93
-513 94
93 -94 513
-514 -512
-514 -513
512 513 514
-515 2
-515 93
-2 -93 515
-516 -93
-516 -411
93 411 516
-517 -515
-517 -516
515 516 517
-518 3
-518 93
-3 -93 518
-519 -93
-519 -414
93 414 519
-520 -518
-520 -519
518 519 520
-521 4
-521 93
-4 -93 521
-522 -93
-522 -417
93 417 522
-523 -521
-523 -522
521 522 523
-524 5
-524 93
-5 -93 524
-525 -93
-525 -420
93 420 525
-526 -524
-526 -525
524 525 526
-527 6
-527 93
-6 -93 527
-528 -93
-528 -423
93 423 528
-529 -527
-529 -528
527 528 529
-530 7
-530 93
-7 -93 530
-531 -93
-531 -426
93 426 531
-532 -530
-532 -531
530 531 532
-533 8
-533 93
-8 -93 533
-534 -93
-534 -429
93 429 534
-535 -533
-535 -534
533 534 535
-536 9
-536 93
-9 -93 536
-537 -93
-537 -432
93 432 537
-538 -536
-538 -537
536 537 538
-539 10
-539 93
-10 -93 539
-540 -93
-540 -435
93 435 540
-541 -539
-541 -540
539 540 541
-542 11
-542 93
-11 -93 542
-543 -93
-543 -438
93 438 543
-544 -542
-544 -543
542 543 544
-545 12
-545 93
-12 -93 545
-546 -93
-546 -441
93 441 546
-547 -545
-547 -546
545 546 547
-548 13
-548 93
-13 -93 548
-549 -93
-549 -444
93 444 549
-550 -548
-550 -549
548 549 550
-551 14
-551 93
-14 -93 551
-552 -93
-552 -447
93 447 552
-553 -551
-553 -552
551 552 553
-554 15
-554 93
-15 -93 554
-555 -93
-555 -450
93 450 555
-556 -554
-556 -555
554 555 556
-557 16
-557 93
-16 -93 557
-558 -93
-558 -453
93 453 558
-559 -557
-559 -558
557 558 559
-560 17
-560 93
-17 -93 560
-561 -93
-561 -456
93 456 561
-562 -560
-562 -561
560 561 562
-563 18
-563 93
-18 -93 563
-564 -93
-564 -459
93 459 564
-565 -563
-565 -564
563 564 565
-566 19
-566 93
-19 -93 566
-567 -93
-567 -462
93 462 567
-568 -566
-568 -567
566 567 568
-569 20
-569 93
-20 -93 569
-570 -93
-570 -465
93 465 570
-571 -569
-571 -570
569 570 571
-572 21
-572 93
-21 -93 572
-573 -93
-573 -468
93 468 573
-574 -572
-574 -573
572 573 574
-575 22
-575 93
-22 -93 575
-576 -93
-576 -471
93 471 576
-577 -575
-577 -576
575 576 577
-578 23
-578 93
-23 -93 578
-579 -93
-579 -474
93 474 579
-580 -578
-580 -579
578 579 580
-581 -93
-581 -477
93 477 581
-582 -93
-582 -480
93 480 582
-583 -93
-583 -483
93 483 583
-584 -93
-584 -486
93 486 584
-585 -93
-585 -489
93 489 585
-586 -93
-586 -492
93 492 586
-587 -93
-587 -495
93 495 587
-588 -93
-588 -498
93 498 588
-589 -93
-589 -501
93 501 589
-590 -93
-590 -504
93 504 590
-591 -93
-591 -507
93 507 591
-592 -93
-592 -510
93 510 592
-593 -93
-593 511
93 -511 593
-594 -59
-594 408
59 -408 594
-595 24
-595 -594
-24 594 595
595
